NAME : brazil58.37028.tour
COMMENT : Cost = 12347_37028
COMMENT : Found by LKH [Keld Helsgaun] Thu Nov 16 17:24:02 2017
TYPE : TOUR
DIMENSION : 60
TOUR_SECTION
1
23
5
55
31
7
38
8
18
59
42
16
11
39
21
3
35
10
52
51
47
49
43
27
12
57
24
44
60
58
26
17
36
19
6
28
14
37
15
34
46
56
45
33
29
48
41
2
54
22
4
50
53
20
32
9
25
40
13
30
-1
EOF
